n = 100;
rows = 216;
supports = [|
  {1},2..10,
 |{1},92..100,
 |{2},{1},
 |{2},3..11,
 |{2},93..100,
 |{3},1..2,
 |{3},4..12,
 |{3},94..100,
 |{4},1..3,
 |{4},5..13,
 |{4},95..100,
 |{5},1..4,
 |{5},6..14,
 |{5},96..100,
 |{6},1..5,
 |{6},7..15,
 |{6},97..100,
 |{7},1..6,
 |{7},8..16,
 |{7},98..100,
 |{8},1..7,
 |{8},9..17,
 |{8},99..100,
 |{9},1..8,
 |{9},10..18,
 |{9},{100},
 |{10},1..9,
 |{10},11..19,
 |{11},2..10,
 |{11},12..20,
 |{12},3..11,
 |{12},13..21,
 |{13},4..12,
 |{13},14..22,
 |{14},5..13,
 |{14},15..23,
 |{15},6..14,
 |{15},16..24,
 |{16},7..15,
 |{16},17..25,
 |{17},8..16,
 |{17},18..26,
 |{18},9..17,
 |{18},19..27,
 |{19},10..18,
 |{19},20..28,
 |{20},11..19,
 |{20},21..29,
 |{21},12..20,
 |{21},22..30,
 |{22},13..21,
 |{22},23..31,
 |{23},14..22,
 |{23},24..32,
 |{24},15..23,
 |{24},25..33,
 |{25},16..24,
 |{25},26..34,
 |{26},17..25,
 |{26},27..35,
 |{27},18..26,
 |{27},28..36,
 |{28},19..27,
 |{28},29..37,
 |{29},20..28,
 |{29},30..38,
 |{30},21..29,
 |{30},31..39,
 |{31},22..30,
 |{31},32..40,
 |{32},23..31,
 |{32},33..41,
 |{33},24..32,
 |{33},34..42,
 |{34},25..33,
 |{34},35..43,
 |{35},26..34,
 |{35},36..44,
 |{36},27..35,
 |{36},37..45,
 |{37},28..36,
 |{37},38..46,
 |{38},29..37,
 |{38},39..47,
 |{39},30..38,
 |{39},40..48,
 |{40},31..39,
 |{40},41..49,
 |{41},32..40,
 |{41},42..50,
 |{42},33..41,
 |{42},43..51,
 |{43},34..42,
 |{43},44..52,
 |{44},35..43,
 |{44},45..53,
 |{45},36..44,
 |{45},46..54,
 |{46},37..45,
 |{46},47..55,
 |{47},38..46,
 |{47},48..56,
 |{48},39..47,
 |{48},49..57,
 |{49},40..48,
 |{49},50..58,
 |{50},41..49,
 |{50},51..59,
 |{51},42..50,
 |{51},52..60,
 |{52},43..51,
 |{52},53..61,
 |{53},44..52,
 |{53},54..62,
 |{54},45..53,
 |{54},55..63,
 |{55},46..54,
 |{55},56..64,
 |{56},47..55,
 |{56},57..65,
 |{57},48..56,
 |{57},58..66,
 |{58},49..57,
 |{58},59..67,
 |{59},50..58,
 |{59},60..68,
 |{60},51..59,
 |{60},61..69,
 |{61},52..60,
 |{61},62..70,
 |{62},53..61,
 |{62},63..71,
 |{63},54..62,
 |{63},64..72,
 |{64},55..63,
 |{64},65..73,
 |{65},56..64,
 |{65},66..74,
 |{66},57..65,
 |{66},67..75,
 |{67},58..66,
 |{67},68..76,
 |{68},59..67,
 |{68},69..77,
 |{69},60..68,
 |{69},70..78,
 |{70},61..69,
 |{70},71..79,
 |{71},62..70,
 |{71},72..80,
 |{72},63..71,
 |{72},73..81,
 |{73},64..72,
 |{73},74..82,
 |{74},65..73,
 |{74},75..83,
 |{75},66..74,
 |{75},76..84,
 |{76},67..75,
 |{76},77..85,
 |{77},68..76,
 |{77},78..86,
 |{78},69..77,
 |{78},79..87,
 |{79},70..78,
 |{79},80..88,
 |{80},71..79,
 |{80},81..89,
 |{81},72..80,
 |{81},82..90,
 |{82},73..81,
 |{82},83..91,
 |{83},74..82,
 |{83},84..92,
 |{84},75..83,
 |{84},85..93,
 |{85},76..84,
 |{85},86..94,
 |{86},77..85,
 |{86},87..95,
 |{87},78..86,
 |{87},88..96,
 |{88},79..87,
 |{88},89..97,
 |{89},80..88,
 |{89},90..98,
 |{90},81..89,
 |{90},91..99,
 |{91},82..90,
 |{91},92..100,
 |{92},83..91,
 |{92},93..100,
 |{92},{1},
 |{93},84..92,
 |{93},94..100,
 |{93},1..2,
 |{94},85..93,
 |{94},95..100,
 |{94},1..3,
 |{95},86..94,
 |{95},96..100,
 |{95},1..4,
 |{96},87..95,
 |{96},97..100,
 |{96},1..5,
 |{97},88..96,
 |{97},98..100,
 |{97},1..6,
 |{98},89..97,
 |{98},99..100,
 |{98},1..7,
 |{99},90..98,
 |{99},{100},
 |{99},1..8,
 |{100},91..99,
 |{100},1..9 |];

t = 247;

indexes = [|
    0,6,
  | 0,11,
  | 0,22,
  | 0,53,
  | 0,76,
  | 0,94,
  | 1,18,
  | 1,19,
  | 1,27,
  | 1,32,
  | 1,48,
  | 2,28,
  | 2,36,
  | 2,46,
  | 2,74,
  | 2,94,
  | 3,14,
  | 3,17,
  | 3,55,
  | 3,61,
  | 3,75,
  | 4,46,
  | 4,54,
  | 4,66,
  | 4,74,
  | 5,9,
  | 5,39,
  | 5,50,
  | 5,68,
  | 5,72,
  | 6,29,
  | 6,65,
  | 6,82,
  | 6,86,
  | 6,92,
  | 7,14,
  | 7,29,
  | 7,30,
  | 7,69,
  | 7,75,
  | 7,91,
  | 8,64,
  | 8,95,
  | 9,12,
  | 9,16,
  | 9,47,
  | 9,72,
  | 9,98,
  | 10,13,
  | 10,26,
  | 10,56,
  | 10,58,
  | 10,90,
  | 11,24,
  | 11,37,
  | 11,53,
  | 11,83,
  | 14,30,
  | 14,51,
  | 14,83,
  | 15,29,
  | 15,65,
  | 15,69,
  | 15,86,
  | 15,92,
  | 15,94,
  | 16,56,
  | 17,25,
  | 17,34,
  | 17,40,
  | 17,55,
  | 17,73,
  | 18,19,
  | 18,25,
  | 18,31,
  | 18,73,
  | 18,88,
  | 19,32,
  | 19,79,
  | 20,74,
  | 21,82,
  | 21,86,
  | 21,89,
  | 21,92,
  | 22,28,
  | 22,37,
  | 22,46,
  | 22,62,
  | 22,82,
  | 23,27,
  | 23,31,
  | 23,79,
  | 23,86,
  | 24,28,
  | 24,36,
  | 24,64,
  | 25,32,
  | 25,69,
  | 25,75,
  | 25,87,
  | 26,47,
  | 26,58,
  | 26,63,
  | 26,98,
  | 27,31,
  | 27,79,
  | 27,89,
  | 28,53,
  | 28,64,
  | 28,95,
  | 29,37,
  | 29,76,
  | 29,83,
  | 30,51,
  | 30,65,
  | 31,69,
  | 31,91,
  | 31,92,
  | 32,34,
  | 32,70,
  | 32,73,
  | 33,39,
  | 33,47,
  | 33,71,
  | 33,72,
  | 33,80,
  | 33,84,
  | 34,38,
  | 34,43,
  | 34,59,
  | 34,88,
  | 35,46,
  | 35,62,
  | 35,82,
  | 35,99,
  | 36,37,
  | 36,52,
  | 36,64,
  | 36,95,
  | 37,53,
  | 37,94,
  | 38,40,
  | 38,45,
  | 38,61,
  | 38,75,
  | 38,87,
  | 39,49,
  | 39,80,
  | 39,96,
  | 40,59,
  | 40,61,
  | 41,44,
  | 41,49,
  | 41,85,
  | 41,88,
  | 41,96,
  | 41,97,
  | 42,56,
  | 43,44,
  | 43,48,
  | 43,70,
  | 43,87,
  | 43,97,
  | 44,60,
  | 44,96,
  | 45,63,
  | 45,77,
  | 45,85,
  | 45,93,
  | 45,97,
  | 46,54,
  | 46,95,
  | 47,56,
  | 47,57,
  | 47,68,
  | 48,70,
  | 48,88,
  | 48,96,
  | 49,68,
  | 49,71,
  | 49,80,
  | 49,84,
  | 51,55,
  | 51,69,
  | 51,73,
  | 51,91,
  | 54,74,
  | 54,99,
  | 55,75,
  | 56,58,
  | 56,98,
  | 57,58,
  | 57,71,
  | 57,78,
  | 57,84,
  | 57,90,
  | 59,61,
  | 59,77,
  | 59,87,
  | 59,97,
  | 60,71,
  | 60,80,
  | 60,85,
  | 60,96,
  | 60,97,
  | 61,93,
  | 62,74,
  | 62,92,
  | 62,94,
  | 62,99,
  | 63,71,
  | 63,78,
  | 63,84,
  | 63,90,
  | 65,76,
  | 65,83,
  | 65,91,
  | 66,95,
  | 67,98,
  | 68,72,
  | 68,98,
  | 69,79,
  | 70,88,
  | 71,81,
  | 73,75,
  | 73,79,
  | 74,95,
  | 76,83,
  | 77,81,
  | 77,93,
  | 78,81,
  | 78,90,
  | 79,91,
  | 81,85,
  | 81,93,
  | 81,97,
  | 82,94,
  | 82,99,
  | 84,85,
  | 84,98,
  | 85,87,
  | 86,89,
  | 86,91,
  | 87,88,
  | 89,92,
  | 89,99,
  | 90,93 |];

